l=23865;
a=5;
setup_costs=[|21,21,21,21,21,
|21,21,21,21,21,
|21,21,21,21,21,
|21,21,21,21,21,
|21,21,21,21,21,
|0,0,0,0,0,|];
setup_times=[|19,19,19,19,19,
|19,19,19,19,19,
|19,19,19,19,19,
|19,19,19,19,19,
|19,19,19,19,19,
|0,0,0,0,0,|];
m=2;
min_cap=[0, 0];
max_cap=[12, 6];

initState=[5, 1];
s=5;
m_a_s = [|0,0,0,1449,16280,
|1279,4488,9225,23015,23480|];
m_a_e = [|0,0,0,15459,23620,
|3875,8735,21582,23466,23839|];
n=250;
eligible_machine =[{1, 2}, {1, 2}, {1}, {1, 2}, {1, 2}, {1, 2}, {1, 2}, {1, 2}, {2}, {2}, {1, 2}, {2}, {2}, {1, 2}, {1}, {2}, {2}, {2}, {1}, {2}, {1, 2}, {2}, {2}, {1}, {1, 2}, {1}, {1, 2}, {1, 2}, {1, 2}, {1, 2}, {1}, {1}, {2}, {2}, {1, 2}, {1, 2}, {1, 2}, {1, 2}, {2}, {1, 2}, {1}, {1}, {1, 2}, {1}, {2}, {1}, {1}, {1, 2}, {2}, {1, 2}, {1, 2}, {1, 2}, {1}, {1}, {1, 2}, {1, 2}, {1, 2}, {1, 2}, {1, 2}, {1, 2}, {1, 2}, {1, 2}, {2}, {2}, {2}, {1, 2}, {1, 2}, {1}, {1, 2}, {1, 2}, {1, 2}, {1, 2}, {1, 2}, {2}, {1}, {2}, {1, 2}, {2}, {1, 2}, {1, 2}, {1, 2}, {1}, {1, 2}, {2}, {1, 2}, {2}, {1}, {1, 2}, {2}, {1, 2}, {1}, {1, 2}, {1, 2}, {1, 2}, {1, 2}, {2}, {1}, {2}, {1, 2}, {2}, {1}, {1, 2}, {1, 2}, {1, 2}, {1}, {1}, {1}, {1, 2}, {2}, {1, 2}, {2}, {1, 2}, {2}, {2}, {1, 2}, {2}, {1}, {1}, {1, 2}, {1}, {2}, {2}, {1, 2}, {1, 2}, {2}, {2}, {1, 2}, {2}, {2}, {1}, {2}, {1}, {1, 2}, {1, 2}, {1, 2}, {1}, {1, 2}, {1}, {1, 2}, {2}, {1, 2}, {1, 2}, {1, 2}, {1}, {1}, {2}, {1, 2}, {1, 2}, {1}, {1, 2}, {1, 2}, {1, 2}, {1}, {1, 2}, {1}, {1, 2}, {1, 2}, {1, 2}, {1, 2}, {1, 2}, {2}, {2}, {2}, {1, 2}, {1}, {1}, {1, 2}, {2}, {2}, {1}, {1, 2}, {1, 2}, {1, 2}, {1}, {1, 2}, {1}, {1}, {1}, {1, 2}, {1, 2}, {1, 2}, {2}, {2}, {1}, {1, 2}, {1}, {2}, {1, 2}, {1}, {1}, {1, 2}, {1, 2}, {2}, {1, 2}, {1}, {1}, {1, 2}, {1, 2}, {2}, {1, 2}, {2}, {1, 2}, {1, 2}, {1, 2}, {1}, {1}, {1, 2}, {1, 2}, {1, 2}, {2}, {2}, {1, 2}, {1, 2}, {1, 2}, {1, 2}, {1}, {1, 2}, {1, 2}, {1, 2}, {1, 2}, {1}, {1, 2}, {1, 2}, {2}, {2}, {1, 2}, {1}, {1, 2}, {1, 2}, {1}, {2}, {1, 2}, {2}, {1}, {1, 2}, {1}, {1, 2}, {1, 2}, {1, 2}, {1, 2}, {1}, {1, 2}, {2}, {2}, {1}, {2}, {2}, {2}, {1, 2}, {1, 2}];
earliest_start=[625, 878, 1081, 678, 122, 1121, 931, 244, 1055, 163, 93, 289, 479, 765, 1028, 777, 1113, 1130, 132, 1015, 253, 700, 70, 1010, 8, 17, 479, 596, 1070, 916, 1115, 709, 854, 1175, 1212, 925, 1162, 162, 726, 732, 149, 1016, 1105, 280, 671, 521, 701, 75, 30, 691, 521, 890, 659, 1002, 1200, 690, 958, 829, 29, 934, 318, 558, 6, 661, 29, 1068, 601, 1015, 942, 1133, 214, 611, 55, 1055, 422, 157, 391, 926, 18, 941, 1120, 1081, 1136, 30, 125, 611, 260, 998, 536, 268, 292, 55, 324, 276, 351, 678, 860, 469, 170, 393, 580, 419, 287, 1082, 180, 1002, 934, 752, 1058, 422, 1007, 106, 921, 126, 295, 440, 467, 755, 912, 991, 689, 661, 105, 83, 117, 83, 998, 269, 431, 1031, 592, 247, 1144, 1030, 783, 360, 1196, 866, 99, 530, 104, 791, 434, 238, 95, 857, 899, 39, 907, 714, 551, 730, 679, 821, 113, 252, 933, 814, 27, 910, 443, 505, 863, 614, 354, 753, 821, 555, 1043, 860, 259, 404, 1112, 663, 968, 996, 851, 427, 604, 700, 385, 464, 178, 535, 436, 70, 532, 926, 325, 457, 481, 533, 335, 698, 926, 305, 1078, 949, 289, 109, 355, 250, 1210, 1126, 362, 960, 67, 444, 1010, 64, 741, 79, 705, 856, 239, 1068, 461, 584, 150, 368, 812, 401, 214, 1080, 1150, 1116, 236, 75, 357, 208, 240, 1026, 966, 325, 374, 778, 541, 57, 1151, 379, 825, 1198, 136, 1038, 649, 1215, 416, 1102, 56, 1133];
latest_end=[883, 1048, 1102, 888, 580, 1254, 1029, 677, 1214, 285, 320, 697, 609, 802, 1107, 813, 1179, 1294, 388, 1105, 382, 713, 91, 1237, 224, 53, 674, 1032, 1143, 1202, 1400, 733, 958, 1284, 1321, 1009, 1168, 212, 816, 862, 153, 1037, 1361, 696, 840, 657, 863, 273, 119, 698, 636, 917, 1013, 1335, 1202, 769, 1243, 939, 35, 977, 783, 585, 55, 806, 296, 1254, 916, 1093, 1027, 1156, 403, 733, 97, 1096, 479, 234, 637, 1075, 135, 1094, 1230, 1149, 1264, 53, 185, 968, 275, 1013, 622, 342, 422, 461, 397, 451, 546, 889, 1070, 789, 226, 459, 685, 510, 318, 1226, 202, 1140, 1090, 834, 1211, 666, 1247, 112, 1087, 274, 296, 556, 793, 898, 1146, 1076, 985, 747, 164, 445, 177, 146, 1052, 395, 449, 1223, 700, 464, 1379, 1068, 1105, 430, 1444, 1060, 495, 560, 152, 887, 474, 501, 268, 1110, 1062, 337, 1255, 812, 613, 845, 744, 1084, 242, 263, 943, 817, 36, 918, 469, 535, 1036, 689, 373, 1175, 828, 594, 1189, 877, 380, 543, 1248, 1059, 1331, 1212, 1087, 616, 606, 1022, 476, 701, 229, 845, 644, 115, 540, 1398, 391, 669, 615, 636, 353, 719, 984, 398, 1225, 1321, 550, 273, 532, 356, 1444, 1282, 514, 1086, 261, 627, 1059, 130, 773, 375, 959, 913, 286, 1144, 906, 593, 477, 400, 991, 417, 608, 1265, 1328, 1227, 598, 491, 386, 300, 449, 1076, 1020, 508, 461, 806, 677, 293, 1537, 391, 1033, 1578, 304, 1345, 664, 1249, 451, 1367, 205, 1272];
min_time=[63, 43, 10, 62, 93, 46, 81, 96, 58, 39, 51, 85, 86, 8, 16, 13, 22, 79, 59, 26, 90, 3, 10, 84, 45, 20, 97, 97, 57, 76, 93, 9, 63, 43, 77, 55, 3, 47, 21, 31, 2, 13, 67, 97, 43, 63, 94, 94, 21, 3, 72, 13, 80, 71, 1, 23, 66, 99, 4, 29, 96, 25, 31, 42, 89, 71, 84, 57, 26, 8, 48, 71, 30, 29, 33, 72, 59, 56, 43, 33, 24, 65, 70, 6, 22, 77, 5, 8, 62, 38, 52, 87, 23, 45, 60, 58, 100, 84, 14, 51, 85, 85, 18, 77, 11, 34, 40, 28, 33, 66, 80, 3, 53, 35, 1, 58, 76, 32, 57, 24, 72, 70, 35, 81, 18, 25, 45, 46, 8, 52, 73, 44, 77, 33, 86, 60, 89, 67, 83, 11, 36, 76, 13, 93, 36, 68, 37, 98, 79, 21, 32, 43, 34, 100, 56, 6, 6, 3, 6, 6, 16, 20, 46, 46, 12, 90, 3, 9, 78, 4, 43, 52, 97, 88, 92, 46, 98, 99, 1, 90, 90, 49, 25, 66, 71, 14, 2, 95, 23, 87, 32, 34, 8, 19, 32, 48, 76, 96, 70, 62, 61, 74, 51, 52, 83, 60, 40, 40, 12, 30, 19, 68, 54, 21, 11, 16, 96, 4, 75, 8, 43, 5, 99, 71, 43, 89, 74, 93, 8, 35, 99, 17, 23, 40, 18, 19, 51, 85, 94, 3, 50, 97, 52, 69, 8, 33, 18, 95, 36, 80];
max_time=[100, 100, 100, 100, 100, 100, 100, 100, 100, 100, 100, 100, 100, 100, 100, 100, 100, 100, 100, 100, 100, 100, 100, 100, 100, 100, 100, 100, 100, 100, 100, 100, 100, 100, 100, 100, 100, 100, 100, 100, 100, 100, 100, 100, 100, 100, 100, 100, 100, 100, 100, 100, 100, 100, 100, 100, 100, 100, 100, 100, 100, 100, 100, 100, 100, 100, 100, 100, 100, 100, 100, 100, 100, 100, 100, 100, 100, 100, 100, 100, 100, 100, 100, 100, 100, 100, 100, 100, 100, 100, 100, 100, 100, 100, 100, 100, 100, 100, 100, 100, 100, 100, 100, 100, 100, 100, 100, 100, 100, 100, 100, 100, 100, 100, 100, 100, 100, 100, 100, 100, 100, 100, 100, 100, 100, 100, 100, 100, 100, 100, 100, 100, 100, 100, 100, 100, 100, 100, 100, 100, 100, 100, 100, 100, 100, 100, 100, 100, 100, 100, 100, 100, 100, 100, 100, 100, 100, 100, 100, 100, 100, 100, 100, 100, 100, 100, 100, 100, 100, 100, 100, 100, 100, 100, 100, 100, 100, 100, 100, 100, 100, 100, 100, 100, 100, 100, 100, 100, 100, 100, 100, 100, 100, 100, 100, 100, 100, 100, 100, 100, 100, 100, 100, 100, 100, 100, 100, 100, 100, 100, 100, 100, 100, 100, 100, 100, 100, 100, 100, 100, 100, 100, 100, 100, 100, 100, 100, 100, 100, 100, 100, 100, 100, 100, 100, 100, 100, 100, 100, 100, 100, 100, 100, 100, 100, 100, 100, 100, 100, 100];
size=[1, 1, 5, 3, 1, 4, 4, 5, 4, 3, 4, 4, 1, 5, 4, 5, 1, 4, 2, 4, 3, 1, 1, 4, 1, 4, 5, 3, 2, 4, 3, 2, 3, 5, 2, 4, 1, 5, 3, 3, 3, 1, 1, 2, 5, 1, 1, 3, 5, 4, 5, 3, 2, 1, 3, 4, 1, 3, 3, 1, 4, 5, 1, 5, 4, 2, 1, 1, 1, 2, 3, 3, 3, 1, 4, 5, 1, 4, 3, 2, 3, 5, 1, 2, 3, 5, 3, 3, 5, 2, 4, 4, 3, 4, 2, 5, 1, 3, 5, 4, 2, 3, 3, 3, 1, 1, 1, 3, 5, 2, 3, 1, 2, 1, 2, 2, 3, 4, 1, 1, 2, 3, 4, 4, 5, 4, 1, 2, 2, 3, 3, 1, 3, 1, 5, 1, 3, 2, 3, 3, 1, 1, 3, 5, 4, 2, 1, 4, 5, 4, 1, 3, 4, 5, 5, 3, 1, 1, 1, 5, 3, 5, 3, 5, 2, 2, 2, 4, 3, 3, 4, 2, 3, 2, 3, 3, 4, 1, 5, 3, 5, 2, 2, 2, 4, 3, 5, 5, 3, 2, 2, 4, 1, 2, 4, 3, 5, 4, 2, 4, 1, 5, 2, 4, 2, 2, 4, 3, 5, 1, 3, 4, 2, 5, 1, 2, 3, 1, 3, 1, 3, 5, 1, 2, 3, 1, 1, 5, 3, 1, 5, 5, 2, 3, 3, 5, 1, 4, 2, 5, 1, 3, 3, 4, 4, 1, 5, 4, 4, 1];
attribute=[1, 5, 3, 3, 5, 5, 3, 5, 4, 3, 2, 4, 5, 5, 4, 2, 4, 2, 4, 3, 4, 5, 2, 3, 5, 3, 4, 1, 5, 5, 2, 3, 3, 4, 4, 3, 5, 4, 3, 3, 2, 4, 2, 4, 4, 4, 5, 2, 1, 2, 4, 1, 4, 3, 5, 4, 1, 2, 2, 5, 1, 2, 4, 3, 2, 2, 4, 5, 3, 5, 1, 4, 1, 4, 1, 5, 3, 4, 3, 5, 1, 2, 3, 1, 3, 1, 1, 3, 2, 2, 1, 3, 4, 5, 4, 5, 1, 5, 5, 2, 1, 1, 4, 3, 3, 4, 2, 5, 5, 5, 2, 5, 1, 3, 1, 4, 5, 1, 3, 4, 1, 3, 3, 1, 2, 4, 1, 1, 4, 5, 2, 4, 5, 1, 3, 5, 3, 4, 4, 5, 1, 4, 4, 5, 3, 4, 1, 2, 4, 2, 2, 4, 4, 3, 3, 3, 2, 3, 3, 3, 4, 1, 4, 2, 4, 1, 2, 2, 1, 4, 5, 1, 4, 4, 3, 4, 2, 1, 2, 2, 4, 1, 1, 5, 4, 2, 4, 3, 2, 3, 3, 2, 3, 1, 3, 4, 4, 5, 2, 3, 1, 2, 5, 4, 4, 4, 2, 5, 1, 4, 5, 5, 4, 4, 3, 5, 2, 2, 1, 3, 5, 4, 2, 1, 1, 3, 1, 5, 2, 5, 2, 1, 2, 1, 1, 2, 2, 3, 4, 2, 4, 4, 1, 2, 1, 5, 2, 3, 1, 2];

upper_bound_integer_objective=3491250;
mult_factor_total_runtime=114;
mult_factor_finished_toolate=5586;
mult_factor_total_setuptimes=0;
mult_factor_total_setupcosts=133;
running_time_bound=12237;
min_duration=1;
max_duration=100;
max_setup_time=19;
max_setup_cost=21;